140	32	4	112	
10	10	10	10

0	0	0	0	0	0	1	1
1	1	1	0	1	5	1	2
2	4	4	0	3	9	1	3
3	0	5	1	7	4	1	4
4	6	1	4	0	8	1	5
5	3	5	6	0	7	1	6
6	0	5	3	8	4	1	7
7	4	4	6	0	3	1	8
8	5	5	6	0	3	1	9
9	4	6	0	3	1	2	15	10
10	3	4	0	3	1	1	11
11	6	5	3	0	3	1	12
12	4	2	3	0	2	1	13
13	6	0	2	4	3	1	14
14	3	0	2	3	7	2	26	16
15	7	4	2	0	2	4	26	22	20	17
16	0	2	6	3	6	3	22	20	17
17	1	0	6	5	5	1	18
18	3	4	0	3	8	1	19
19	4	3	0	4	3	2	25	21
20	6	3	5	0	3	3	30	25	23
21	2	3	0	5	4	2	30	23
22	2	0	4	3	9	1	23
23	4	0	4	1	2	1	24
24	4	5	0	2	9	1	27
25	5	0	8	2	3	1	27
26	3	7	3	0	4	1	27
27	5	6	0	6	6	1	28
28	4	5	2	0	6	1	29
29	0	5	4	8	3	1	31
30	5	2	0	6	7	1	31
31	0	0	0	0	0	0
